10008102454
10270495494
25372571858
24597176162
7664207922
21147249714
26001594942
17148469490
23154894882
21372680442
19786780262
14015071806
14016195090
17764377450
14639287066
14246859722
14716021570
14639248038
14642930534
14716421174
12808095298
26871278782
10485295262
11366265118
5707103390
5225701102
5225764750
26914011734
5225811202
26938630358
26938637502
26610912686
27003387862
26938640274
26508979922
26508932774
27348327362
27348327354
27348319526
27346642150
27346642134
27346642046
27346642026
27346636994
27346636970
17650451410
17650755550
19202418558
20160342394
22112183166
6849828302
8235247254
7636820706
10007798494
25183272470
14751851570
17259495838
18812415050
18812415050
20966965878
24111847762
24134271214
24136672966
23785588546
20307142242
26788225854
19918153538
27347111050
27338374278
24442284222
4805368834
26374467858
14113875782
10638840626
26116154246
22922418414
26947360906
18095213638
4622661574
24117615638
6669809210
10044912242
24310408590
1814498350
2129582994
4652091154
9471665562
1948904590
25664340778
5068803214
24907367450
1474619026
16669737562
15765560102
6211791602
27158466686
1676835446
1246944018
7303339810
7706369658